p cnf 965 2479
51 -699 -1 0
-51 699 0
-51 1 0
52 -51 -700 0
-52 51 0
-52 700 0
53 -5 -4 0
-53 5 0
-53 4 0
54 -53 -6 0
-54 53 0
-54 6 0
55 -701 -702 0
-55 701 0
-55 702 0
56 -8 -7 0
-56 8 0
-56 7 0
57 -56 -703 0
-57 56 0
-57 703 0
58 -704 -55 0
-58 704 0
-58 55 0
59 -10 -705 0
-59 10 0
-59 705 0
60 -59 -11 0
-60 59 0
-60 11 0
61 -706 -58 0
-61 706 0
-61 58 0
62 -13 -12 0
-62 13 0
-62 12 0
63 -62 -6 0
-63 62 0
-63 6 0
64 -707 -61 0
-64 707 0
-64 61 0
65 -7 -2 0
-65 7 0
-65 2 0
66 -65 -14 0
-66 65 0
-66 14 0
67 -708 -64 0
-67 708 0
-67 64 0
68 -16 -709 0
-68 16 0
-68 709 0
69 -68 -710 0
-69 68 0
-69 710 0
70 -711 -67 0
-70 711 0
-70 67 0
71 -712 -5 0
-71 712 0
-71 5 0
72 -71 -713 0
-72 71 0
-72 713 0
73 -714 -70 0
-73 714 0
-73 70 0
74 -19 -705 0
-74 19 0
-74 705 0
75 -74 -715 0
-75 74 0
-75 715 0
76 -716 -73 0
-76 716 0
-76 73 0
77 -717 -4 0
-77 717 0
-77 4 0
78 -77 -11 0
-78 77 0
-78 11 0
79 -718 -76 0
-79 718 0
-79 76 0
80 -719 -4 0
-80 719 0
-80 4 0
81 -80 -22 0
-81 80 0
-81 22 0
82 -720 -79 0
-82 720 0
-82 79 0
83 -23 -721 0
-83 23 0
-83 721 0
84 -83 -2 0
-84 83 0
-84 2 0
85 -722 -82 0
-85 722 0
-85 82 0
86 -24 -16 0
-86 24 0
-86 16 0
87 -86 -723 0
-87 86 0
-87 723 0
88 -724 -85 0
-88 724 0
-88 85 0
89 -26 -21 0
-89 26 0
-89 21 0
90 -89 -715 0
-90 89 0
-90 715 0
91 -725 -88 0
-91 725 0
-91 88 0
92 -28 -726 0
-92 28 0
-92 726 0
93 -92 -6 0
-93 92 0
-93 6 0
94 -727 -91 0
-94 727 0
-94 91 0
95 -28 -712 0
-95 28 0
-95 712 0
96 -95 -728 0
-96 95 0
-96 728 0
97 -729 -94 0
-97 729 0
-97 94 0
98 -16 -8 0
-98 16 0
-98 8 0
99 -98 -30 0
-99 98 0
-99 30 0
100 -730 -97 0
-100 730 0
-100 97 0
101 -31 -5 0
-101 31 0
-101 5 0
102 -101 -32 0
-102 101 0
-102 32 0
103 -731 -100 0
-103 731 0
-103 100 0
104 -29 -732 0
-104 29 0
-104 732 0
105 -104 -33 0
-105 104 0
-105 33 0
106 -733 -103 0
-106 733 0
-106 103 0
107 -34 -18 0
-107 34 0
-107 18 0
108 -107 -734 0
-108 107 0
-108 734 0
109 -735 -106 0
-109 735 0
-109 106 0
110 -736 -705 0
-110 736 0
-110 705 0
111 -110 -737 0
-111 110 0
-111 737 0
112 -738 -109 0
-112 738 0
-112 109 0
113 -728 -7 0
-113 728 0
-113 7 0
114 -113 -35 0
-114 113 0
-114 35 0
115 -739 -112 0
-115 739 0
-115 112 0
116 -740 -712 0
-116 740 0
-116 712 0
117 -116 -37 0
-117 116 0
-117 37 0
118 -741 -115 0
-118 741 0
-118 115 0
119 -742 -743 0
-119 742 0
-119 743 0
120 -119 -734 0
-120 119 0
-120 734 0
121 -744 -118 0
-121 744 0
-121 118 0
122 -40 -745 0
-122 40 0
-122 745 0
123 -122 -746 0
-123 122 0
-123 746 0
124 -747 -121 0
-124 747 0
-124 121 0
125 -40 -728 0
-125 40 0
-125 728 0
126 -125 -748 0
-126 125 0
-126 748 0
127 -749 -124 0
-127 749 0
-127 124 0
128 -37 -8 0
-128 37 0
-128 8 0
129 -128 -20 0
-129 128 0
-129 20 0
130 -750 -127 0
-130 750 0
-130 127 0
131 -19 -751 0
-131 19 0
-131 751 0
132 -131 -37 0
-132 131 0
-132 37 0
133 -752 -130 0
-133 752 0
-133 130 0
134 -753 -28 0
-134 753 0
-134 28 0
135 -134 -37 0
-135 134 0
-135 37 0
136 -754 -133 0
-136 754 0
-136 133 0
137 -43 -8 0
-137 43 0
-137 8 0
138 -137 -44 0
-138 137 0
-138 44 0
139 -755 -136 0
-139 755 0
-139 136 0
140 -45 -13 0
-140 45 0
-140 13 0
141 -140 -33 0
-141 140 0
-141 33 0
142 -756 -139 0
-142 756 0
-142 139 0
143 -757 -30 0
-143 757 0
-143 30 0
144 -143 -758 0
-144 143 0
-144 758 0
145 -759 -142 0
-145 759 0
-145 142 0
146 -737 -717 0
-146 737 0
-146 717 0
147 -146 -758 0
-147 146 0
-147 758 0
148 -760 -145 0
-148 760 0
-148 145 0
149 -717 -761 0
-149 717 0
-149 761 0
150 -149 -47 0
-150 149 0
-150 47 0
151 -762 -148 0
-151 762 0
-151 148 0
152 -740 -746 0
-152 740 0
-152 746 0
153 -152 -763 0
-153 152 0
-153 763 0
154 -764 -151 0
-154 764 0
-154 151 0
155 -27 -6 0
-155 27 0
-155 6 0
156 -155 -25 0
-156 155 0
-156 25 0
157 -765 -154 0
-157 765 0
-157 154 0
158 -18 -16 0
-158 18 0
-158 16 0
159 -158 -766 0
-159 158 0
-159 766 0
160 -767 -157 0
-160 767 0
-160 157 0
161 -768 -703 0
-161 768 0
-161 703 0
162 -161 -743 0
-162 161 0
-162 743 0
163 -769 -160 0
-163 769 0
-163 160 0
164 -44 -3 0
-164 44 0
-164 3 0
165 -164 -713 0
-165 164 0
-165 713 0
166 -770 -163 0
-166 770 0
-166 163 0
167 -732 -24 0
-167 732 0
-167 24 0
168 -167 -771 0
-168 167 0
-168 771 0
169 -772 -166 0
-169 772 0
-169 166 0
170 -48 -42 0
-170 48 0
-170 42 0
171 -170 -717 0
-171 170 0
-171 717 0
172 -773 -169 0
-172 773 0
-172 169 0
173 -40 -719 0
-173 40 0
-173 719 0
174 -173 -35 0
-174 173 0
-174 35 0
175 -774 -172 0
-175 774 0
-175 172 0
176 -31 -726 0
-176 31 0
-176 726 0
177 -176 -37 0
-177 176 0
-177 37 0
178 -775 -175 0
-178 775 0
-178 175 0
179 -776 -11 0
-179 776 0
-179 11 0
180 -179 -14 0
-180 179 0
-180 14 0
181 -777 -178 0
-181 777 0
-181 178 0
182 -28 -703 0
-182 28 0
-182 703 0
183 -182 -47 0
-183 182 0
-183 47 0
184 -778 -181 0
-184 778 0
-184 181 0
185 -42 -40 0
-185 42 0
-185 40 0
186 -185 -740 0
-186 185 0
-186 740 0
187 -779 -184 0
-187 779 0
-187 184 0
188 -49 -24 0
-188 49 0
-188 24 0
189 -188 -33 0
-189 188 0
-189 33 0
190 -780 -187 0
-190 780 0
-190 187 0
191 -43 -38 0
-191 43 0
-191 38 0
192 -191 -4 0
-192 191 0
-192 4 0
193 -781 -190 0
-193 781 0
-193 190 0
194 -782 -783 0
-194 782 0
-194 783 0
195 -194 -748 0
-195 194 0
-195 748 0
196 -784 -193 0
-196 784 0
-196 193 0
197 -45 -4 0
-197 45 0
-197 4 0
198 -197 -763 0
-198 197 0
-198 763 0
199 -785 -196 0
-199 785 0
-199 196 0
200 -42 -786 0
-200 42 0
-200 786 0
201 -200 -20 0
-201 200 0
-201 20 0
202 -787 -199 0
-202 787 0
-202 199 0
203 -8 -700 0
-203 8 0
-203 700 0
204 -203 -737 0
-204 203 0
-204 737 0
205 -788 -202 0
-205 788 0
-205 202 0
206 -710 -3 0
-206 710 0
-206 3 0
207 -206 -33 0
-207 206 0
-207 33 0
208 -789 -205 0
-208 789 0
-208 205 0
209 -782 -31 0
-209 782 0
-209 31 0
210 -209 -723 0
-210 209 0
-210 723 0
211 -790 -208 0
-211 790 0
-211 208 0
212 -50 -13 0
-212 50 0
-212 13 0
213 -212 -33 0
-213 212 0
-213 33 0
214 -791 -211 0
-214 791 0
-214 211 0
215 -776 -17 0
-215 776 0
-215 17 0
216 -215 -732 0
-216 215 0
-216 732 0
217 -792 -214 0
-217 792 0
-217 214 0
218 -34 -723 0
-218 34 0
-218 723 0
219 -218 -715 0
-219 218 0
-219 715 0
220 -793 -217 0
-220 793 0
-220 217 0
221 -19 -12 0
-221 19 0
-221 12 0
222 -221 -737 0
-222 221 0
-222 737 0
223 -794 -220 0
-223 794 0
-223 220 0
224 -717 -17 0
-224 717 0
-224 17 0
225 -224 -33 0
-225 224 0
-225 33 0
226 -795 -223 0
-226 795 0
-226 223 0
227 -796 -9 0
-227 796 0
-227 9 0
228 -227 -14 0
-228 227 0
-228 14 0
229 -797 -226 0
-229 797 0
-229 226 0
230 -30 -18 0
-230 30 0
-230 18 0
231 -230 -798 0
-231 230 0
-231 798 0
232 -799 -229 0
-232 799 0
-232 229 0
233 -23 -699 0
-233 23 0
-233 699 0
234 -233 -30 0
-234 233 0
-234 30 0
235 -800 -232 0
-235 800 0
-235 232 0
236 -27 -3 0
-236 27 0
-236 3 0
237 -236 -798 0
-237 236 0
-237 798 0
238 -801 -235 0
-238 801 0
-238 235 0
239 -27 -743 0
-239 27 0
-239 743 0
240 -239 -798 0
-240 239 0
-240 798 0
241 -802 -238 0
-241 802 0
-241 238 0
242 -42 -3 0
-242 42 0
-242 3 0
243 -242 -5 0
-243 242 0
-243 5 0
244 -803 -241 0
-244 803 0
-244 241 0
245 -42 -2 0
-245 42 0
-245 2 0
246 -245 -20 0
-246 245 0
-246 20 0
247 -804 -244 0
-247 804 0
-247 244 0
248 -10 -9 0
-248 10 0
-248 9 0
249 -248 -699 0
-249 248 0
-249 699 0
250 -805 -247 0
-250 805 0
-250 247 0
251 -28 -19 0
-251 28 0
-251 19 0
252 -251 -26 0
-252 251 0
-252 26 0
253 -806 -250 0
-253 806 0
-253 250 0
254 -40 -2 0
-254 40 0
-254 2 0
255 -254 -798 0
-255 254 0
-255 798 0
256 -807 -253 0
-256 807 0
-256 253 0
257 -757 -29 0
-257 757 0
-257 29 0
258 -257 -11 0
-258 257 0
-258 11 0
259 -808 -256 0
-259 808 0
-259 256 0
260 -782 -761 0
-260 782 0
-260 761 0
261 -260 -719 0
-261 260 0
-261 719 0
262 -809 -259 0
-262 809 0
-262 259 0
263 -39 -700 0
-263 39 0
-263 700 0
264 -263 -798 0
-264 263 0
-264 798 0
265 -810 -262 0
-265 810 0
-265 262 0
266 -811 -719 0
-266 811 0
-266 719 0
267 -266 -26 0
-267 266 0
-267 26 0
268 -812 -265 0
-268 812 0
-268 265 0
269 -740 -24 0
-269 740 0
-269 24 0
270 -269 -715 0
-270 269 0
-270 715 0
271 -813 -268 0
-271 813 0
-271 268 0
272 -811 -15 0
-272 811 0
-272 15 0
273 -272 -50 0
-273 272 0
-273 50 0
274 -814 -271 0
-274 814 0
-274 271 0
275 -740 -13 0
-275 740 0
-275 13 0
276 -275 -723 0
-276 275 0
-276 723 0
277 -815 -274 0
-277 815 0
-277 274 0
278 -21 -11 0
-278 21 0
-278 11 0
279 -278 -816 0
-279 278 0
-279 816 0
280 -817 -277 0
-280 817 0
-280 277 0
281 -786 -2 0
-281 786 0
-281 2 0
282 -281 -715 0
-282 281 0
-282 715 0
283 -818 -280 0
-283 818 0
-283 280 0
284 -45 -16 0
-284 45 0
-284 16 0
285 -284 -819 0
-285 284 0
-285 819 0
286 -820 -283 0
-286 820 0
-286 283 0
287 -796 -8 0
-287 796 0
-287 8 0
288 -287 -819 0
-288 287 0
-288 819 0
289 -821 -286 0
-289 821 0
-289 286 0
290 -45 -19 0
-290 45 0
-290 19 0
291 -290 -32 0
-291 290 0
-291 32 0
292 -822 -289 0
-292 822 0
-292 289 0
293 -38 -7 0
-293 38 0
-293 7 0
294 -293 -33 0
-294 293 0
-294 33 0
295 -823 -292 0
-295 823 0
-295 292 0
296 -766 -16 0
-296 766 0
-296 16 0
297 -296 -46 0
-297 296 0
-297 46 0
298 -824 -295 0
-298 824 0
-298 295 0
299 -41 -699 0
-299 41 0
-299 699 0
300 -299 -715 0
-300 299 0
-300 715 0
301 -825 -298 0
-301 825 0
-301 298 0
302 -753 -776 0
-302 753 0
-302 776 0
303 -302 -816 0
-303 302 0
-303 816 0
304 -826 -301 0
-304 826 0
-304 301 0
305 -48 -8 0
-305 48 0
-305 8 0
306 -305 -758 0
-306 305 0
-306 758 0
307 -827 -304 0
-307 827 0
-307 304 0
308 -743 -700 0
-308 743 0
-308 700 0
309 -308 -30 0
-309 308 0
-309 30 0
310 -828 -307 0
-310 828 0
-310 307 0
311 -48 -21 0
-311 48 0
-311 21 0
312 -311 -11 0
-312 311 0
-312 11 0
313 -829 -310 0
-313 829 0
-313 310 0
314 -281 -37 0
-314 281 0
-314 37 0
315 -830 -313 0
-315 830 0
-315 313 0
316 -28 -16 0
-316 28 0
-316 16 0
317 -316 -798 0
-317 316 0
-317 798 0
318 -831 -315 0
-318 831 0
-318 315 0
319 -14 -832 0
-319 14 0
-319 832 0
320 -319 -771 0
-320 319 0
-320 771 0
321 -833 -318 0
-321 833 0
-321 318 0
322 -834 -18 0
-322 834 0
-322 18 0
323 -322 -737 0
-323 322 0
-323 737 0
324 -835 -321 0
-324 835 0
-324 321 0
325 -24 -1 0
-325 24 0
-325 1 0
326 -325 -746 0
-326 325 0
-326 746 0
327 -836 -324 0
-327 836 0
-327 324 0
328 -763 -751 0
-328 763 0
-328 751 0
329 -328 -41 0
-329 328 0
-329 41 0
330 -837 -327 0
-330 837 0
-330 327 0
331 -766 -776 0
-331 766 0
-331 776 0
332 -331 -26 0
-332 331 0
-332 26 0
333 -838 -330 0
-333 838 0
-333 330 0
334 -68 -22 0
-334 68 0
-334 22 0
335 -839 -333 0
-335 839 0
-335 333 0
336 -709 -721 0
-336 709 0
-336 721 0
337 -336 -705 0
-337 336 0
-337 705 0
338 -840 -335 0
-338 840 0
-338 335 0
339 -796 -709 0
-339 796 0
-339 709 0
340 -339 -728 0
-340 339 0
-340 728 0
341 -841 -338 0
-341 841 0
-341 338 0
342 -717 -8 0
-342 717 0
-342 8 0
343 -342 -19 0
-343 342 0
-343 19 0
344 -842 -341 0
-344 842 0
-344 341 0
345 -753 -40 0
-345 753 0
-345 40 0
346 -345 -782 0
-346 345 0
-346 782 0
347 -843 -344 0
-347 843 0
-347 344 0
348 -42 -705 0
-348 42 0
-348 705 0
349 -348 -40 0
-349 348 0
-349 40 0
350 -844 -347 0
-350 844 0
-350 347 0
351 -834 -10 0
-351 834 0
-351 10 0
352 -351 -5 0
-352 351 0
-352 5 0
353 -845 -350 0
-353 845 0
-353 350 0
354 -816 -5 0
-354 816 0
-354 5 0
355 -354 -748 0
-355 354 0
-355 748 0
356 -846 -353 0
-356 846 0
-356 353 0
357 -745 -726 0
-357 745 0
-357 726 0
358 -357 -31 0
-358 357 0
-358 31 0
359 -847 -356 0
-359 847 0
-359 356 0
360 -732 -768 0
-360 732 0
-360 768 0
361 -360 -14 0
-361 360 0
-361 14 0
362 -848 -359 0
-362 848 0
-362 359 0
363 -42 -16 0
-363 42 0
-363 16 0
364 -363 -771 0
-364 363 0
-364 771 0
365 -849 -362 0
-365 849 0
-365 362 0
366 -763 -9 0
-366 763 0
-366 9 0
367 -366 -798 0
-367 366 0
-367 798 0
368 -850 -365 0
-368 850 0
-368 365 0
369 -710 -7 0
-369 710 0
-369 7 0
370 -369 -715 0
-370 369 0
-370 715 0
371 -851 -368 0
-371 851 0
-371 368 0
372 -811 -39 0
-372 811 0
-372 39 0
373 -372 -17 0
-373 372 0
-373 17 0
374 -852 -371 0
-374 852 0
-374 371 0
375 -32 -22 0
-375 32 0
-375 22 0
376 -375 -25 0
-376 375 0
-376 25 0
377 -853 -374 0
-377 853 0
-377 374 0
378 -39 -3 0
-378 39 0
-378 3 0
379 -378 -728 0
-379 378 0
-379 728 0
380 -854 -377 0
-380 854 0
-380 377 0
381 -834 -761 0
-381 834 0
-381 761 0
382 -381 -46 0
-382 381 0
-382 46 0
383 -855 -380 0
-383 855 0
-383 380 0
384 -8 -705 0
-384 8 0
-384 705 0
385 -384 -699 0
-385 384 0
-385 699 0
386 -856 -383 0
-386 856 0
-386 383 0
387 -16 -7 0
-387 16 0
-387 7 0
388 -387 -710 0
-388 387 0
-388 710 0
389 -857 -386 0
-389 857 0
-389 386 0
390 -811 -26 0
-390 811 0
-390 26 0
391 -390 -35 0
-391 390 0
-391 35 0
392 -858 -389 0
-392 858 0
-392 389 0
393 -766 -746 0
-393 766 0
-393 746 0
394 -393 -740 0
-394 393 0
-394 740 0
395 -859 -392 0
-395 859 0
-395 392 0
396 -48 -796 0
-396 48 0
-396 796 0
397 -396 -44 0
-397 396 0
-397 44 0
398 -860 -395 0
-398 860 0
-398 395 0
399 -728 -719 0
-399 728 0
-399 719 0
400 -399 -819 0
-400 399 0
-400 819 0
401 -861 -398 0
-401 861 0
-401 398 0
402 -717 -12 0
-402 717 0
-402 12 0
403 -402 -740 0
-403 402 0
-403 740 0
404 -862 -401 0
-404 862 0
-404 401 0
405 -43 -746 0
-405 43 0
-405 746 0
406 -405 -37 0
-406 405 0
-406 37 0
407 -863 -404 0
-407 863 0
-407 404 0
408 -834 -703 0
-408 834 0
-408 703 0
409 -408 -710 0
-409 408 0
-409 710 0
410 -864 -407 0
-410 864 0
-410 407 0
411 -757 -717 0
-411 757 0
-411 717 0
412 -411 -4 0
-412 411 0
-412 4 0
413 -865 -410 0
-413 865 0
-413 410 0
414 -29 -726 0
-414 29 0
-414 726 0
415 -414 -20 0
-415 414 0
-415 20 0
416 -866 -413 0
-416 866 0
-416 413 0
417 -36 -34 0
-417 36 0
-417 34 0
418 -417 -713 0
-418 417 0
-418 713 0
419 -867 -416 0
-419 867 0
-419 416 0
420 -23 -786 0
-420 23 0
-420 786 0
421 -420 -35 0
-421 420 0
-421 35 0
422 -868 -419 0
-422 868 0
-422 419 0
423 -743 -721 0
-423 743 0
-423 721 0
424 -423 -34 0
-424 423 0
-424 34 0
425 -869 -422 0
-425 869 0
-425 422 0
426 -870 -15 0
-426 870 0
-426 15 0
427 -426 -734 0
-427 426 0
-427 734 0
428 -871 -425 0
-428 871 0
-428 425 0
429 -872 -7 0
-429 872 0
-429 7 0
430 -429 -30 0
-430 429 0
-430 30 0
431 -873 -428 0
-431 873 0
-431 428 0
432 -39 -28 0
-432 39 0
-432 28 0
433 -432 -6 0
-433 432 0
-433 6 0
434 -874 -431 0
-434 874 0
-434 431 0
435 -776 -19 0
-435 776 0
-435 19 0
436 -435 -46 0
-436 435 0
-436 46 0
437 -875 -434 0
-437 875 0
-437 434 0
438 -38 -15 0
-438 38 0
-438 15 0
439 -438 -758 0
-439 438 0
-439 758 0
440 -876 -437 0
-440 876 0
-440 437 0
441 -47 -28 0
-441 47 0
-441 28 0
442 -441 -11 0
-442 441 0
-442 11 0
443 -877 -440 0
-443 877 0
-443 440 0
444 -48 -734 0
-444 48 0
-444 734 0
445 -444 -763 0
-445 444 0
-445 763 0
446 -878 -443 0
-446 878 0
-446 443 0
447 -42 -783 0
-447 42 0
-447 783 0
448 -447 -717 0
-448 447 0
-448 717 0
449 -879 -446 0
-449 879 0
-449 446 0
450 -766 -18 0
-450 766 0
-450 18 0
451 -450 -748 0
-451 450 0
-451 748 0
452 -880 -449 0
-452 880 0
-452 449 0
453 -881 -736 0
-453 881 0
-453 736 0
454 -453 -699 0
-454 453 0
-454 699 0
455 -882 -452 0
-455 882 0
-455 452 0
456 -796 -782 0
-456 796 0
-456 782 0
457 -456 -49 0
-457 456 0
-457 49 0
458 -883 -455 0
-458 883 0
-458 455 0
459 -12 -832 0
-459 12 0
-459 832 0
460 -459 -870 0
-460 459 0
-460 870 0
461 -884 -458 0
-461 884 0
-461 458 0
462 -751 -736 0
-462 751 0
-462 736 0
463 -462 -30 0
-463 462 0
-463 30 0
464 -885 -461 0
-464 885 0
-464 461 0
465 -18 -1 0
-465 18 0
-465 1 0
466 -465 -19 0
-466 465 0
-466 19 0
467 -886 -464 0
-467 886 0
-467 464 0
468 -39 -23 0
-468 39 0
-468 23 0
469 -468 -10 0
-469 468 0
-469 10 0
470 -887 -467 0
-470 887 0
-470 467 0
471 -763 -28 0
-471 763 0
-471 28 0
472 -471 -14 0
-472 471 0
-472 14 0
473 -888 -470 0
-473 888 0
-473 470 0
474 -717 -10 0
-474 717 0
-474 10 0
475 -474 -49 0
-475 474 0
-475 49 0
476 -889 -473 0
-476 889 0
-476 473 0
477 -751 -4 0
-477 751 0
-477 4 0
478 -477 -758 0
-478 477 0
-478 758 0
479 -890 -476 0
-479 890 0
-479 476 0
480 -710 -15 0
-480 710 0
-480 15 0
481 -480 -713 0
-481 480 0
-481 713 0
482 -891 -479 0
-482 891 0
-482 479 0
483 -28 -24 0
-483 28 0
-483 24 0
484 -483 -723 0
-484 483 0
-484 723 0
485 -892 -482 0
-485 892 0
-485 482 0
486 -30 -893 0
-486 30 0
-486 893 0
487 -486 -737 0
-487 486 0
-487 737 0
488 -894 -485 0
-488 894 0
-488 485 0
489 -834 -783 0
-489 834 0
-489 783 0
490 -489 -726 0
-490 489 0
-490 726 0
491 -895 -488 0
-491 895 0
-491 488 0
492 -761 -832 0
-492 761 0
-492 832 0
493 -492 -37 0
-493 492 0
-493 37 0
494 -896 -491 0
-494 896 0
-494 491 0
495 -16 -1 0
-495 16 0
-495 1 0
496 -495 -713 0
-496 495 0
-496 713 0
497 -897 -494 0
-497 897 0
-497 494 0
498 -8 -2 0
-498 8 0
-498 2 0
499 -498 -734 0
-499 498 0
-499 734 0
500 -898 -497 0
-500 898 0
-500 497 0
501 -709 -719 0
-501 709 0
-501 719 0
502 -501 -33 0
-502 501 0
-502 33 0
503 -899 -500 0
-503 899 0
-503 500 0
504 -44 -705 0
-504 44 0
-504 705 0
505 -504 -740 0
-505 504 0
-505 740 0
506 -900 -503 0
-506 900 0
-506 503 0
507 -726 -700 0
-507 726 0
-507 700 0
508 -507 -728 0
-508 507 0
-508 728 0
509 -901 -506 0
-509 901 0
-509 506 0
510 -40 -832 0
-510 40 0
-510 832 0
511 -510 -699 0
-511 510 0
-511 699 0
512 -902 -509 0
-512 902 0
-512 509 0
513 -726 -12 0
-513 726 0
-513 12 0
514 -513 -3 0
-514 513 0
-514 3 0
515 -903 -512 0
-515 903 0
-515 512 0
516 -743 -12 0
-516 743 0
-516 12 0
517 -516 -715 0
-517 516 0
-517 715 0
518 -904 -515 0
-518 904 0
-518 515 0
519 -776 -699 0
-519 776 0
-519 699 0
520 -519 -3 0
-520 519 0
-520 3 0
521 -905 -518 0
-521 905 0
-521 518 0
522 -47 -703 0
-522 47 0
-522 703 0
523 -522 -45 0
-523 522 0
-523 45 0
524 -906 -521 0
-524 906 0
-524 521 0
525 -713 -3 0
-525 713 0
-525 3 0
526 -525 -37 0
-526 525 0
-526 37 0
527 -907 -524 0
-527 907 0
-527 524 0
528 -31 -3 0
-528 31 0
-528 3 0
529 -528 -33 0
-529 528 0
-529 33 0
530 -908 -527 0
-530 908 0
-530 527 0
531 -44 -721 0
-531 44 0
-531 721 0
532 -531 -22 0
-532 531 0
-532 22 0
533 -909 -530 0
-533 909 0
-533 530 0
534 -42 -870 0
-534 42 0
-534 870 0
535 -534 -34 0
-535 534 0
-535 34 0
536 -910 -533 0
-536 910 0
-536 533 0
537 -19 -7 0
-537 19 0
-537 7 0
538 -537 -734 0
-538 537 0
-538 734 0
539 -911 -536 0
-539 911 0
-539 536 0
540 -47 -746 0
-540 47 0
-540 746 0
541 -540 -719 0
-541 540 0
-541 719 0
542 -912 -539 0
-542 912 0
-542 539 0
543 -757 -27 0
-543 757 0
-543 27 0
544 -543 -33 0
-544 543 0
-544 33 0
545 -913 -542 0
-545 913 0
-545 542 0
546 -776 -726 0
-546 776 0
-546 726 0
547 -546 -6 0
-547 546 0
-547 6 0
548 -914 -545 0
-548 914 0
-548 545 0
549 -732 -8 0
-549 732 0
-549 8 0
550 -549 -748 0
-550 549 0
-550 748 0
551 -915 -548 0
-551 915 0
-551 548 0
552 -24 -709 0
-552 24 0
-552 709 0
553 -552 -740 0
-553 552 0
-553 740 0
554 -916 -551 0
-554 916 0
-554 551 0
555 -726 -783 0
-555 726 0
-555 783 0
556 -555 -737 0
-556 555 0
-556 737 0
557 -917 -554 0
-557 917 0
-557 554 0
558 -796 -710 0
-558 796 0
-558 710 0
559 -558 -798 0
-559 558 0
-559 798 0
560 -918 -557 0
-560 918 0
-560 557 0
561 -15 -893 0
-561 15 0
-561 893 0
562 -561 -30 0
-562 561 0
-562 30 0
563 -919 -560 0
-563 919 0
-563 560 0
564 -42 -7 0
-564 42 0
-564 7 0
565 -564 -25 0
-565 564 0
-565 25 0
566 -920 -563 0
-566 920 0
-566 563 0
567 -30 -24 0
-567 30 0
-567 24 0
568 -567 -723 0
-568 567 0
-568 723 0
569 -921 -566 0
-569 921 0
-569 566 0
570 -30 -728 0
-570 30 0
-570 728 0
571 -570 -6 0
-571 570 0
-571 6 0
572 -922 -569 0
-572 922 0
-572 569 0
573 -18 -9 0
-573 18 0
-573 9 0
574 -573 -763 0
-574 573 0
-574 763 0
575 -923 -572 0
-575 923 0
-575 572 0
576 -783 -751 0
-576 783 0
-576 751 0
577 -576 -32 0
-577 576 0
-577 32 0
578 -924 -575 0
-578 924 0
-578 575 0
579 -43 -726 0
-579 43 0
-579 726 0
580 -579 -798 0
-580 579 0
-580 798 0
581 -925 -578 0
-581 925 0
-581 578 0
582 -39 -5 0
-582 39 0
-582 5 0
583 -582 -41 0
-583 582 0
-583 41 0
584 -926 -581 0
-584 926 0
-584 581 0
585 -345 -29 0
-585 345 0
-585 29 0
586 -927 -584 0
-586 927 0
-586 584 0
587 -42 -728 0
-587 42 0
-587 728 0
588 -587 -35 0
-588 587 0
-588 35 0
589 -928 -586 0
-589 928 0
-589 586 0
590 -34 -700 0
-590 34 0
-590 700 0
591 -590 -816 0
-591 590 0
-591 816 0
592 -929 -589 0
-592 929 0
-592 589 0
593 -783 -736 0
-593 783 0
-593 736 0
594 -593 -723 0
-594 593 0
-594 723 0
595 -930 -592 0
-595 930 0
-595 592 0
596 -47 -709 0
-596 47 0
-596 709 0
597 -596 -719 0
-597 596 0
-597 719 0
598 -931 -595 0
-598 931 0
-598 595 0
599 -35 -1 0
-599 35 0
-599 1 0
600 -599 -713 0
-600 599 0
-600 713 0
601 -932 -598 0
-601 932 0
-601 598 0
602 -50 -745 0
-602 50 0
-602 745 0
603 -602 -20 0
-603 602 0
-603 20 0
604 -933 -601 0
-604 933 0
-604 601 0
605 -753 -17 0
-605 753 0
-605 17 0
606 -605 -14 0
-606 605 0
-606 14 0
607 -934 -604 0
-607 934 0
-607 604 0
608 -417 -798 0
-608 417 0
-608 798 0
609 -935 -607 0
-609 935 0
-609 607 0
610 -751 -2 0
-610 751 0
-610 2 0
611 -610 -710 0
-611 610 0
-611 710 0
612 -936 -609 0
-612 936 0
-612 609 0
613 -18 -736 0
-613 18 0
-613 736 0
614 -613 -26 0
-614 613 0
-614 26 0
615 -937 -612 0
-615 937 0
-615 612 0
616 -15 -699 0
-616 15 0
-616 699 0
617 -616 -758 0
-617 616 0
-617 758 0
618 -938 -615 0
-618 938 0
-618 615 0
619 -13 -8 0
-619 13 0
-619 8 0
620 -619 -4 0
-620 619 0
-620 4 0
621 -939 -618 0
-621 939 0
-621 618 0
622 -381 -29 0
-622 381 0
-622 29 0
623 -940 -621 0
-623 940 0
-623 621 0
624 -39 -2 0
-624 39 0
-624 2 0
625 -624 -700 0
-625 624 0
-625 700 0
626 -941 -623 0
-626 941 0
-626 623 0
627 -834 -1 0
-627 834 0
-627 1 0
628 -627 -50 0
-628 627 0
-628 50 0
629 -942 -626 0
-629 942 0
-629 626 0
630 -21 -751 0
-630 21 0
-630 751 0
631 -630 -17 0
-631 630 0
-631 17 0
632 -943 -629 0
-632 943 0
-632 629 0
633 -44 -7 0
-633 44 0
-633 7 0
634 -633 -893 0
-634 633 0
-634 893 0
635 -944 -632 0
-635 944 0
-635 632 0
636 -719 -786 0
-636 719 0
-636 786 0
637 -636 -26 0
-637 636 0
-637 26 0
638 -945 -635 0
-638 945 0
-638 635 0
639 -768 -21 0
-639 768 0
-639 21 0
640 -639 -29 0
-640 639 0
-640 29 0
641 -946 -638 0
-641 946 0
-641 638 0
642 -7 -5 0
-642 7 0
-642 5 0
643 -642 -30 0
-643 642 0
-643 30 0
644 -947 -641 0
-644 947 0
-644 641 0
645 -783 -9 0
-645 783 0
-645 9 0
646 -645 -746 0
-646 645 0
-646 746 0
647 -948 -644 0
-647 948 0
-647 644 0
648 -740 -7 0
-648 740 0
-648 7 0
649 -648 -893 0
-649 648 0
-649 893 0
650 -949 -647 0
-650 949 0
-650 647 0
651 -745 -721 0
-651 745 0
-651 721 0
652 -651 -35 0
-652 651 0
-652 35 0
653 -950 -650 0
-653 950 0
-653 650 0
654 -34 -786 0
-654 34 0
-654 786 0
655 -654 -20 0
-655 654 0
-655 20 0
656 -951 -653 0
-656 951 0
-656 653 0
657 -50 -736 0
-657 50 0
-657 736 0
658 -657 -819 0
-658 657 0
-658 819 0
659 -952 -656 0
-659 952 0
-659 656 0
660 -29 -3 0
-660 29 0
-660 3 0
661 -660 -713 0
-661 660 0
-661 713 0
662 -953 -659 0
-662 953 0
-662 659 0
663 -753 -736 0
-663 753 0
-663 736 0
664 -663 -44 0
-664 663 0
-664 44 0
665 -954 -662 0
-665 954 0
-665 662 0
666 -19 -9 0
-666 19 0
-666 9 0
667 -666 -723 0
-667 666 0
-667 723 0
668 -955 -665 0
-668 955 0
-668 665 0
669 -782 -22 0
-669 782 0
-669 22 0
670 -669 -758 0
-670 669 0
-670 758 0
671 -956 -668 0
-671 956 0
-671 668 0
672 -47 -870 0
-672 47 0
-672 870 0
673 -672 -22 0
-673 672 0
-673 22 0
674 -957 -671 0
-674 957 0
-674 671 0
675 -746 -728 0
-675 746 0
-675 728 0
676 -675 -771 0
-676 675 0
-676 771 0
677 -958 -674 0
-677 958 0
-677 674 0
678 -758 -34 0
-678 758 0
-678 34 0
679 -678 -35 0
-679 678 0
-679 35 0
680 -959 -677 0
-680 959 0
-680 677 0
681 -16 -10 0
-681 16 0
-681 10 0
682 -681 -32 0
-682 681 0
-682 32 0
683 -960 -680 0
-683 960 0
-683 680 0
684 -796 -4 0
-684 796 0
-684 4 0
685 -684 -758 0
-685 684 0
-685 758 0
686 -961 -683 0
-686 961 0
-686 683 0
687 -746 -786 0
-687 746 0
-687 786 0
688 -687 -20 0
-688 687 0
-688 20 0
689 -962 -686 0
-689 962 0
-689 686 0
690 -726 -18 0
-690 726 0
-690 18 0
691 -690 -734 0
-691 690 0
-691 734 0
692 -963 -689 0
-692 963 0
-692 689 0
693 -796 -740 0
-693 796 0
-693 740 0
694 -693 -49 0
-694 693 0
-694 49 0
695 -964 -692 0
-695 964 0
-695 692 0
696 -719 -705 0
-696 719 0
-696 705 0
697 -696 -816 0
-697 696 0
-697 816 0
698 -965 -695 0
-698 965 0
-698 695 0
-699 -2 0
699 2 0
-700 -3 0
700 3 0
-701 -54 0
701 54 0
-702 -52 0
702 52 0
-703 -9 0
703 9 0
-704 -57 0
704 57 0
-705 -1 0
705 1 0
-706 -60 0
706 60 0
-707 -63 0
707 63 0
-708 -66 0
708 66 0
-709 -15 0
709 15 0
-710 -17 0
710 17 0
-711 -69 0
711 69 0
-712 -18 0
712 18 0
-713 -11 0
713 11 0
-714 -72 0
714 72 0
-715 -20 0
715 20 0
-716 -75 0
716 75 0
-717 -21 0
717 21 0
-718 -78 0
718 78 0
-719 -6 0
719 6 0
-720 -81 0
720 81 0
-721 -7 0
721 7 0
-722 -84 0
722 84 0
-723 -25 0
723 25 0
-724 -87 0
724 87 0
-725 -90 0
725 90 0
-726 -27 0
726 27 0
-727 -93 0
727 93 0
-728 -29 0
728 29 0
-729 -96 0
729 96 0
-730 -99 0
730 99 0
-731 -102 0
731 102 0
-732 -26 0
732 26 0
-733 -105 0
733 105 0
-734 -30 0
734 30 0
-735 -108 0
735 108 0
-736 -12 0
736 12 0
-737 -22 0
737 22 0
-738 -111 0
738 111 0
-739 -114 0
739 114 0
-740 -36 0
740 36 0
-741 -117 0
741 117 0
-742 -38 0
742 38 0
-743 -16 0
743 16 0
-744 -120 0
744 120 0
-745 -39 0
745 39 0
-746 -34 0
746 34 0
-747 -123 0
747 123 0
-748 -41 0
748 41 0
-749 -126 0
749 126 0
-750 -129 0
750 129 0
-751 -13 0
751 13 0
-752 -132 0
752 132 0
-753 -42 0
753 42 0
-754 -135 0
754 135 0
-755 -138 0
755 138 0
-756 -141 0
756 141 0
-757 -45 0
757 45 0
-758 -46 0
758 46 0
-759 -144 0
759 144 0
-760 -147 0
760 147 0
-761 -10 0
761 10 0
-762 -150 0
762 150 0
-763 -35 0
763 35 0
-764 -153 0
764 153 0
-765 -156 0
765 156 0
-766 -47 0
766 47 0
-767 -159 0
767 159 0
-768 -24 0
768 24 0
-769 -162 0
769 162 0
-770 -165 0
770 165 0
-771 -33 0
771 33 0
-772 -168 0
772 168 0
-773 -171 0
773 171 0
-774 -174 0
774 174 0
-775 -177 0
775 177 0
-776 -31 0
776 31 0
-777 -180 0
777 180 0
-778 -183 0
778 183 0
-779 -186 0
779 186 0
-780 -189 0
780 189 0
-781 -192 0
781 192 0
-782 -32 0
782 32 0
-783 -23 0
783 23 0
-784 -195 0
784 195 0
-785 -198 0
785 198 0
-786 -4 0
786 4 0
-787 -201 0
787 201 0
-788 -204 0
788 204 0
-789 -207 0
789 207 0
-790 -210 0
790 210 0
-791 -213 0
791 213 0
-792 -216 0
792 216 0
-793 -219 0
793 219 0
-794 -222 0
794 222 0
-795 -225 0
795 225 0
-796 -40 0
796 40 0
-797 -228 0
797 228 0
-798 -49 0
798 49 0
-799 -231 0
799 231 0
-800 -234 0
800 234 0
-801 -237 0
801 237 0
-802 -240 0
802 240 0
-803 -243 0
803 243 0
-804 -246 0
804 246 0
-805 -249 0
805 249 0
-806 -252 0
806 252 0
-807 -255 0
807 255 0
-808 -258 0
808 258 0
-809 -261 0
809 261 0
-810 -264 0
810 264 0
-811 -44 0
811 44 0
-812 -267 0
812 267 0
-813 -270 0
813 270 0
-814 -273 0
814 273 0
-815 -276 0
815 276 0
-816 -37 0
816 37 0
-817 -279 0
817 279 0
-818 -282 0
818 282 0
-819 -14 0
819 14 0
-820 -285 0
820 285 0
-821 -288 0
821 288 0
-822 -291 0
822 291 0
-823 -294 0
823 294 0
-824 -297 0
824 297 0
-825 -300 0
825 300 0
-826 -303 0
826 303 0
-827 -306 0
827 306 0
-828 -309 0
828 309 0
-829 -312 0
829 312 0
-830 -314 0
830 314 0
-831 -317 0
831 317 0
-832 -8 0
832 8 0
-833 -320 0
833 320 0
-834 -48 0
834 48 0
-835 -323 0
835 323 0
-836 -326 0
836 326 0
-837 -329 0
837 329 0
-838 -332 0
838 332 0
-839 -334 0
839 334 0
-840 -337 0
840 337 0
-841 -340 0
841 340 0
-842 -343 0
842 343 0
-843 -346 0
843 346 0
-844 -349 0
844 349 0
-845 -352 0
845 352 0
-846 -355 0
846 355 0
-847 -358 0
847 358 0
-848 -361 0
848 361 0
-849 -364 0
849 364 0
-850 -367 0
850 367 0
-851 -370 0
851 370 0
-852 -373 0
852 373 0
-853 -376 0
853 376 0
-854 -379 0
854 379 0
-855 -382 0
855 382 0
-856 -385 0
856 385 0
-857 -388 0
857 388 0
-858 -391 0
858 391 0
-859 -394 0
859 394 0
-860 -397 0
860 397 0
-861 -400 0
861 400 0
-862 -403 0
862 403 0
-863 -406 0
863 406 0
-864 -409 0
864 409 0
-865 -412 0
865 412 0
-866 -415 0
866 415 0
-867 -418 0
867 418 0
-868 -421 0
868 421 0
-869 -424 0
869 424 0
-870 -19 0
870 19 0
-871 -427 0
871 427 0
-872 -43 0
872 43 0
-873 -430 0
873 430 0
-874 -433 0
874 433 0
-875 -436 0
875 436 0
-876 -439 0
876 439 0
-877 -442 0
877 442 0
-878 -445 0
878 445 0
-879 -448 0
879 448 0
-880 -451 0
880 451 0
-881 -28 0
881 28 0
-882 -454 0
882 454 0
-883 -457 0
883 457 0
-884 -460 0
884 460 0
-885 -463 0
885 463 0
-886 -466 0
886 466 0
-887 -469 0
887 469 0
-888 -472 0
888 472 0
-889 -475 0
889 475 0
-890 -478 0
890 478 0
-891 -481 0
891 481 0
-892 -484 0
892 484 0
-893 -5 0
893 5 0
-894 -487 0
894 487 0
-895 -490 0
895 490 0
-896 -493 0
896 493 0
-897 -496 0
897 496 0
-898 -499 0
898 499 0
-899 -502 0
899 502 0
-900 -505 0
900 505 0
-901 -508 0
901 508 0
-902 -511 0
902 511 0
-903 -514 0
903 514 0
-904 -517 0
904 517 0
-905 -520 0
905 520 0
-906 -523 0
906 523 0
-907 -526 0
907 526 0
-908 -529 0
908 529 0
-909 -532 0
909 532 0
-910 -535 0
910 535 0
-911 -538 0
911 538 0
-912 -541 0
912 541 0
-913 -544 0
913 544 0
-914 -547 0
914 547 0
-915 -550 0
915 550 0
-916 -553 0
916 553 0
-917 -556 0
917 556 0
-918 -559 0
918 559 0
-919 -562 0
919 562 0
-920 -565 0
920 565 0
-921 -568 0
921 568 0
-922 -571 0
922 571 0
-923 -574 0
923 574 0
-924 -577 0
924 577 0
-925 -580 0
925 580 0
-926 -583 0
926 583 0
-927 -585 0
927 585 0
-928 -588 0
928 588 0
-929 -591 0
929 591 0
-930 -594 0
930 594 0
-931 -597 0
931 597 0
-932 -600 0
932 600 0
-933 -603 0
933 603 0
-934 -606 0
934 606 0
-935 -608 0
935 608 0
-936 -611 0
936 611 0
-937 -614 0
937 614 0
-938 -617 0
938 617 0
-939 -620 0
939 620 0
-940 -622 0
940 622 0
-941 -625 0
941 625 0
-942 -628 0
942 628 0
-943 -631 0
943 631 0
-944 -634 0
944 634 0
-945 -637 0
945 637 0
-946 -640 0
946 640 0
-947 -643 0
947 643 0
-948 -646 0
948 646 0
-949 -649 0
949 649 0
-950 -652 0
950 652 0
-951 -655 0
951 655 0
-952 -658 0
952 658 0
-953 -661 0
953 661 0
-954 -664 0
954 664 0
-955 -667 0
955 667 0
-956 -670 0
956 670 0
-957 -673 0
957 673 0
-958 -676 0
958 676 0
-959 -679 0
959 679 0
-960 -682 0
960 682 0
-961 -685 0
961 685 0
-962 -688 0
962 688 0
-963 -691 0
963 691 0
-964 -694 0
964 694 0
-965 -697 0
965 697 0
698 0
